num_offers = 35;
num_halls = 10;
start=[86,62,49,59,55,6,59,64,4,32,19,69,6,47,51,14,57,35,68,56,29,19,1,19,14,26,3,63,20,5,6,48,55,50,42];
end=[100,70,95,73,60,44,100,83,89,53,32,81,19,97,92,79,62,51,72,90,76,52,41,62,80,58,14,87,21,93,73,69,97,77,51];
price=[859,248,2870,553,171,596,804,1743,7717,433,354,862,920,918,3761,1341,363,928,238,2999,4395,2982,3233,1728,1018,818,1082,1450,200,8494,2429,2028,507,1038,663];
requirement=[240,717,462,297,854,964,611,967,669,237,230,299,519,797,960,938,216,428,207,275,242,302,699,879,780,378,760,772,953,381,201,319,486,227,313];
capacity=[687,734,627,581,924,474,333,355,426,975];
